Problem:    Containers2
Rows:       20
Columns:    64 (64 integer, 64 binary)
Non-zeros:  128
Status:     INTEGER OPTIMAL
Objective:  prezzo = 3100 (MINimum)

   No.   Row name        Activity     Lower bound   Upper bound
------ ------------    ------------- ------------- -------------
     1 max_cap[1]                  0                          -0 
     2 max_cap[2]                 -1                          -0 
     3 max_cap[3]                 -4                          -0 
     4 max_cap[4]                  0                          -0 
     5 oggetti[1]                  1             1             = 
     6 oggetti[2]                  1             1             = 
     7 oggetti[3]                  1             1             = 
     8 oggetti[4]                  1             1             = 
     9 oggetti[5]                  1             1             = 
    10 oggetti[6]                  1             1             = 
    11 oggetti[7]                  1             1             = 
    12 oggetti[8]                  1             1             = 
    13 oggetti[9]                  1             1             = 
    14 oggetti[10]                 1             1             = 
    15 oggetti[11]                 1             1             = 
    16 oggetti[12]                 1             1             = 
    17 oggetti[13]                 1             1             = 
    18 oggetti[14]                 1             1             = 
    19 oggetti[15]                 1             1             = 
    20 prezzo                   3100                             

   No. Column name       Activity     Lower bound   Upper bound
------ ------------    ------------- ------------- -------------
     1 x[1]         *              1             0             1 
     2 x[2]         *              1             0             1 
     3 x[3]         *              1             0             1 
     4 x[4]         *              0             0             1 
     5 y[1,1]       *              0             0             1 
     6 y[2,1]       *              0             0             1 
     7 y[3,1]       *              0             0             1 
     8 y[4,1]       *              0             0             1 
     9 y[5,1]       *              0             0             1 
    10 y[6,1]       *              1             0             1 
    11 y[7,1]       *              1             0             1 
    12 y[8,1]       *              0             0             1 
    13 y[9,1]       *              0             0             1 
    14 y[10,1]      *              0             0             1 
    15 y[11,1]      *              0             0             1 
    16 y[12,1]      *              0             0             1 
    17 y[13,1]      *              1             0             1 
    18 y[14,1]      *              1             0             1 
    19 y[15,1]      *              0             0             1 
    20 y[1,2]       *              0             0             1 
    21 y[2,2]       *              1             0             1 
    22 y[3,2]       *              0             0             1 
    23 y[4,2]       *              0             0             1 
    24 y[5,2]       *              0             0             1 
    25 y[6,2]       *              0             0             1 
    26 y[7,2]       *              0             0             1 
    27 y[8,2]       *              1             0             1 
    28 y[9,2]       *              1             0             1 
    29 y[10,2]      *              0             0             1 
    30 y[11,2]      *              0             0             1 
    31 y[12,2]      *              1             0             1 
    32 y[13,2]      *              0             0             1 
    33 y[14,2]      *              0             0             1 
    34 y[15,2]      *              0             0             1 
    35 y[1,3]       *              1             0             1 
    36 y[2,3]       *              0             0             1 
    37 y[3,3]       *              1             0             1 
    38 y[4,3]       *              1             0             1 
    39 y[5,3]       *              1             0             1 
    40 y[6,3]       *              0             0             1 
    41 y[7,3]       *              0             0             1 
    42 y[8,3]       *              0             0             1 
    43 y[9,3]       *              0             0             1 
    44 y[10,3]      *              1             0             1 
    45 y[11,3]      *              1             0             1 
    46 y[12,3]      *              0             0             1 
    47 y[13,3]      *              0             0             1 
    48 y[14,3]      *              0             0             1 
    49 y[15,3]      *              1             0             1 
    50 y[1,4]       *              0             0             1 
    51 y[2,4]       *              0             0             1 
    52 y[3,4]       *              0             0             1 
    53 y[4,4]       *              0             0             1 
    54 y[5,4]       *              0             0             1 
    55 y[6,4]       *              0             0             1 
    56 y[7,4]       *              0             0             1 
    57 y[8,4]       *              0             0             1 
    58 y[9,4]       *              0             0             1 
    59 y[10,4]      *              0             0             1 
    60 y[11,4]      *              0             0             1 
    61 y[12,4]      *              0             0             1 
    62 y[13,4]      *              0             0             1 
    63 y[14,4]      *              0             0             1 
    64 y[15,4]      *              0             0             1 

Integer feasibility conditions:

KKT.PE: max.abs.err = 0.00e+000 on row 0
        max.rel.err = 0.00e+000 on row 0
        High quality

KKT.PB: max.abs.err = 0.00e+000 on row 0
        max.rel.err = 0.00e+000 on row 0
        High quality

End of output
